12
initial chain 1D
  B    0.80000    0.00000    0.00000  193.82500    0.00000    0.00000
  B    0.60000    0.00000    0.00000 -122.48500    0.00000    0.00000
  B    0.40000    0.00000    0.00000  174.55600    0.00000    0.00000
  B    0.20000    0.00000    0.00000 -133.40500    0.00000    0.00000
  B    0.00000    0.00000    0.00000  163.04800    0.00000    0.00000
  B   -0.20000    0.00000    0.00000    0.00000    0.00000    0.00000
  B   -0.40000    0.00000    0.00000  129.22400    0.00000    0.00000
  B   -0.60000    0.00000    0.00000 -111.76500    0.00000    0.00000
  B   -0.80000    0.00000    0.00000  124.60300    0.00000    0.00000
  B   -1.00000    0.00000    0.00000 -119.88600    0.00000    0.00000
  B   -1.20000    0.00000    0.00000  182.04500    0.00000    0.00000
  B   -1.40000    0.00000    0.00000 -123.12900    0.00000    0.00000